
Gurobi 8.1.1 (win64, Python) logging started 10/20/19 09:53:10

Academic license - for non-commercial use only

Gurobi 8.1.1 (win64, Python) logging started 10/21/19 08:32:16

Academic license - for non-commercial use only

Gurobi 8.1.1 (win64, Python) logging started 10/21/19 10:42:51

Academic license - for non-commercial use only

Gurobi 8.1.1 (win64, Python) logging started 10/21/19 11:22:14

Academic license - for non-commercial use only
